
Log started (V11.0.0) Wed May 14 15:23:27 2008

Tried aggregator 1 time.
Reduced MIP has 130 rows, 3001 columns, and 6030 nonzeros.
Presolve time =    0.03 sec.
Clique table members: 100.
MIP emphasis: balance optimality and feasibility.
MIP search method: dynamic search.
Parallel mode: none, using 1 thread.
Root relaxation solution time =    0.09 sec.

        Nodes                                         Cuts/
   Node  Left     Objective  IInf  Best Integer     Best Node    ItCnt     Gap

*     0+    0                         6829.0000      107.1307      385   98.43%
*     0+    0                          155.0000      107.1307      385   30.88%
      0     0      108.0380    55      155.0000      Fract: 4      404   30.30%
*     0+    0                          150.0000      108.0380      404   27.97%
      0     0      114.1901    60      150.0000      Cuts: 30      730   23.87%
*     0+    0                          144.0000      114.1901      730   20.70%
      0     0      114.2104    64      144.0000      Cuts: 13      777   20.69%
*     0+    0                          139.0000      114.2104      777   17.83%
      0     0      114.4655    66      139.0000      Cuts: 12      796   17.65%
*     0+    0                          138.0000      114.4655      796   17.05%
      0     0      114.5770    78      138.0000       Cuts: 8      826   16.97%
*     0+    0                          136.0000      114.5770      826   15.75%
      0     0      114.6167    78      136.0000       Cuts: 4      856   15.72%
      0     0      114.8207    73      136.0000    MIRcuts: 6      891   15.57%
*     0+    0                          134.0000      114.8207      891   14.31%
      0     0      114.8207    68      134.0000       Cuts: 7      916   14.31%
*     0+    0                          133.0000      114.8207      916   13.67%
      0     0      114.9792    64      133.0000       Cuts: 6      937   13.55%
*     0+    0                          130.0000      114.9792      937   11.55%
      0     0      115.1937    65      130.0000       Cuts: 7      977   11.39%
      0     0      115.5597    65      130.0000       Cuts: 4     1011   11.11%
      0     0      115.5810    75      130.0000       Cuts: 6     1042   11.09%
*     0+    0                          127.0000      115.5810     1042    8.99%
      0     0      116.0308    57      127.0000       Cuts: 4     1084    8.64%
      0     0      116.0395    57      127.0000       Cuts: 4     1105    8.63%
*     0+    0                          126.0000      116.0395     1105    7.91%
*     0+    0                          124.0000      116.0395     1105    6.42%
*     0+    0                          123.0000      116.0395     1105    5.66%
      0     2      116.0395    57      123.0000      116.0395     1105    5.66%
    100    78      117.0000    28      123.0000      116.1398     4200    5.58%
    200   147      118.0000    27      123.0000      116.1398     7095    5.58%
    300   221      120.0000    18      123.0000      116.1398     8675    5.58%
    400   257      117.0000    21      123.0000      117.0000     9530    4.88%
*   491+  228                          122.0000      121.6506    11944    0.29%

Clique cuts applied:  1
Cover cuts applied:  25
Mixed integer rounding cuts applied:  15

Solution pool: 15 solutions saved.

MIP - Integer optimal solution:  Objective = 1.2200000000e+002
Solution time =    7.06 sec.  Iterations = 11944  Nodes = 491 (228)


Incumbent solution
Variable Name           Solution Value
Cmax                        122.000000
X_1_25                        1.000000
X_2_19                        1.000000
X_3_29                        1.000000
X_4_12                        1.000000
X_5_3                         1.000000
X_6_6                         1.000000
X_7_1                         1.000000
X_8_11                        1.000000
X_9_21                        1.000000
X_10_14                       1.000000
X_11_9                        1.000000
X_12_9                        1.000000
X_13_11                       1.000000
X_14_9                        1.000000
X_15_3                        1.000000
X_16_19                       1.000000
X_17_29                       1.000000
X_18_1                        1.000000
X_19_3                        1.000000
X_20_18                       1.000000
X_21_11                       1.000000
X_22_4                        1.000000
X_23_29                       1.000000
X_24_9                        1.000000
X_25_10                       1.000000
X_26_3                        1.000000
X_27_12                       1.000000
X_28_9                        1.000000
X_29_15                       1.000000
X_30_2                        1.000000
X_31_26                       1.000000
X_32_18                       1.000000
X_33_1                        1.000000
X_34_3                        1.000000
X_35_1                        1.000000
X_36_4                        1.000000
X_37_26                       1.000000
X_38_20                       1.000000
X_39_18                       1.000000
X_40_5                        1.000000
X_41_1                        1.000000
X_42_12                       1.000000
X_43_2                        1.000000
X_44_3                        1.000000
X_45_17                       1.000000
X_46_9                        1.000000
X_47_12                       1.000000
X_48_1                        1.000000
X_49_10                       1.000000
X_50_30                       1.000000
X_51_30                       1.000000
X_52_1                        1.000000
X_53_19                       1.000000
X_54_3                        1.000000
X_55_2                        1.000000
X_56_1                        1.000000
X_57_10                       1.000000
X_58_29                       1.000000
X_59_27                       1.000000
X_60_22                       1.000000
X_61_1                        1.000000
X_62_4                        1.000000
X_63_10                       1.000000
X_64_5                        1.000000
X_65_3                        1.000000
X_66_4                        1.000000
X_67_16                       1.000000
X_68_28                       1.000000
X_69_10                       1.000000
X_70_13                       1.000000
X_71_10                       1.000000
X_72_25                       1.000000
X_73_10                       1.000000
X_74_22                       1.000000
X_75_1                        1.000000
X_76_8                        1.000000
X_77_1                        1.000000
X_78_10                       1.000000
X_79_7                        1.000000
X_80_3                        1.000000
X_81_23                       1.000000
X_82_14                       1.000000
X_83_10                       1.000000
X_84_10                       1.000000
X_85_29                       1.000000
X_86_9                        1.000000
X_87_4                        1.000000
X_88_16                       1.000000
X_89_12                       1.000000
X_90_10                       1.000000
X_91_10                       1.000000
X_92_14                       1.000000
X_93_12                       1.000000
X_94_1                        1.000000
X_95_29                       1.000000
X_96_3                        1.000000
X_97_24                       1.000000
X_98_3                        1.000000
X_99_10                       1.000000
X_100_3                       1.000000
All other variables in the range 1-3001 are 0.
